%nprocshared=16
%mem=8GB
#p td b3lyp/6-31g(d) geom=connectivity

TD DFT

0 1
