%nprocshared=1
%Mem=8GB
#p b3lyp/6-31g* nosymm punch=mo iop(3/33=1) 

Find some Js; yes please.

0 1
