%nprocshared=1
%Mem=8GB
#p IOp(3/33=1,6/7=3) b3lyp/6-31g* nosymm

Find some Js; yes please.

0 1
